results/res_prop_muc/res_Cimatti_mathsat_cores/QF_UF/NEQ023_size4.smt.smt2.out

real	0m1.427s
user	0m1.357s
sys	0m0.037s
