results/res_prop_muc/res_Cimatti_mathsat_cores/QF_UF/NEQ023_size4.smt.smt2.res
unsat
( _c0
  _c10
  _c100
  _c101
  _c102
  _c103
  _c104
  _c105
  _c106
  _c107
  _c108
  _c109
  _c11
  _c110
  _c111
  _c112
  _c113
  _c114
  _c115
  _c116
  _c117
  _c118
  _c119
  _c12
  _c120
  _c121
  _c122
  _c123
  _c124
  _c125
  _c126
  _c127
  _c128
  _c129
  _c13
  _c130
  _c131
  _c132
  _c133
  _c134
  _c135
  _c137
  _c138
  _c139
  _c14
  _c141
  _c142
  _c143
  _c145
  _c146
  _c147
  _c15
  _c153
  _c158
  _c16
  _c163
  _c165
  _c166
  _c168
  _c17
  _c18
  _c181
  _c185
  _c187
  _c19
  _c193
  _c194
  _c195
  _c196
  _c197
  _c198
  _c199
  _c20
  _c200
  _c201
  _c202
  _c203
  _c204
  _c205
  _c206
  _c207
  _c208
  _c209
  _c21
  _c210
  _c211
  _c212
  _c213
  _c214
  _c215
  _c216
  _c217
  _c218
  _c219
  _c22
  _c220
  _c221
  _c222
  _c223
  _c224
  _c225
  _c226
  _c227
  _c228
  _c229
  _c23
  _c230
  _c231
  _c232
  _c233
  _c234
  _c235
  _c236
  _c237
  _c238
  _c239
  _c24
  _c240
  _c241
  _c242
  _c243
  _c244
  _c245
  _c246
  _c247
  _c248
  _c249
  _c25
  _c250
  _c251
  _c252
  _c253
  _c254
  _c255
  _c256
  _c257
  _c258
  _c259
  _c26
  _c260
  _c261
  _c262
  _c263
  _c264
  _c265
  _c266
  _c267
  _c268
  _c269
  _c27
  _c270
  _c271
  _c272
  _c273
  _c274
  _c275
  _c276
  _c277
  _c278
  _c279
  _c28
  _c280
  _c281
  _c282
  _c283
  _c284
  _c285
  _c286
  _c287
  _c288
  _c289
  _c29
  _c290
  _c291
  _c292
  _c296
  _c30
  _c301
  _c303
  _c304
  _c306
  _c307
  _c308
  _c309
  _c31
  _c310
  _c311
  _c312
  _c313
  _c314
  _c315
  _c316
  _c317
  _c318
  _c319
  _c32
  _c320
  _c321
  _c322
  _c323
  _c324
  _c325
  _c326
  _c327
  _c328
  _c329
  _c33
  _c330
  _c331
  _c332
  _c333
  _c334
  _c335
  _c336
  _c337
  _c338
  _c339
  _c34
  _c340
  _c341
  _c342
  _c343
  _c344
  _c345
  _c346
  _c347
  _c348
  _c349
  _c35
  _c350
  _c351
  _c352
  _c353
  _c354
  _c355
  _c356
  _c358
  _c36
  _c360
  _c362
  _c368
  _c369
  _c37
  _c370
  _c371
  _c372
  _c373
  _c374
  _c375
  _c376
  _c377
  _c378
  _c379
  _c38
  _c380
  _c381
  _c382
  _c383
  _c385
  _c39
  _c396
  _c397
  _c40
  _c401
  _c403
  _c406
  _c408
  _c41
  _c416
  _c42
  _c420
  _c421
  _c422
  _c424
  _c425
  _c426
  _c427
  _c43
  _c432
  _c433
  _c434
  _c438
  _c439
  _c44
  _c440
  _c441
  _c442
  _c443
  _c45
  _c46
  _c47
  _c48
  _c49
  _c5
  _c50
  _c51
  _c52
  _c53
  _c54
  _c55
  _c56
  _c57
  _c58
  _c59
  _c6
  _c60
  _c61
  _c62
  _c63
  _c64
  _c65
  _c66
  _c67
  _c68
  _c69
  _c7
  _c70
  _c71
  _c72
  _c73
  _c74
  _c75
  _c76
  _c77
  _c78
  _c79
  _c8
  _c80
  _c81
  _c82
  _c83
  _c84
  _c85
  _c86
  _c87
  _c88
  _c89
  _c9
  _c90
  _c91
  _c92
  _c93
  _c94
  _c95
  _c96
  _c97
  _c98
  _c99 )
